c Lingeling SAT Solver
c 
c Version ala b02aa1a04343558c4252b5f4a723be021964f652
c 
c Copyright (C) 2010-2012 Armin Biere JKU Linz Austria.
c All rights reserved.
c 
c released Sat Oct 13 14:05:26 CEST 2012
c compiled Sat Feb 16 02:48:12 EST 2013
c 
c gcc (Debian 4.4.5-8) 4.4.5
c -Wall -O3 -DNLGLOG -DNDEBUG -DNCHKSOL -DNLGLPICOSAT 
c Linux greencar2 2.6.32-5-amd64 x86_64
c 
c reading input file p40.cnf
c no embedded options
c found 'p cnf 226560 703078' header
c read 226560 variables, 703078 clauses, 1462710 literals in 0.0 seconds
c
c feature vars 226560
c feature lits.total 1462710
c feature lits.pos 778732
c feature lits.neg 683978
c feature clauses.total 703078
c feature clauses.unit 84374
c feature clauses.bin 494976
c feature clauses.trn 122328
c feature clauses.lrg 1400
c feature cog.val.min 1
c feature cog.val.avg 100978
c feature cog.val.max 218218
c feature cog.var.min 1
c feature cog.var.avg 113281
c feature cog.var.max 226559
c
c
c --abstime=0
c --acts=2
c --actavgmax=120
c --actstdmin=20
c --actstdmax=80
c --agile=23
c --bias=2
c --block=1
c --blkrtc=0
c --blkclslim=2000
c --blkocclim=2000
c --blkmaxeff=2147483647
c --blkmineff=10000000
c --blkreleff=20
c --card=0
c --cce=3
c --ccemaxeff=100000000
c --ccemineff=5000000
c --ccereleff=3
c --check=0
c --cgrclsr=1
c --cgrmaxority=20
c --cgrmaxeff=8000000
c --cgrmineff=200000
c --cgreleff=1
c --cgrexteq=1
c --cgrextand=1
c --cgrextunits=1
c --cgrextite=1
c --cgrextxor=1
c --cliff=1
c --cliffreleff=8
c --cliffmineff=10000000
c --cliffmaxeff=100000000
c --compact=0
c --decompose=1
c --defragint=10000000
c --defragfree=50
c --elim=1
c --elmrtc=0
c --elmblk=1
c --elmclslim=1000
c --elmocclim=1000
c --elmaxeff=100000000
c --elmineff=5000000
c --elmreleff=10
c --sleeponabort=0
c --exitonabort=0
c --flipping=1
c --flipint=2
c --flipdur=50
c --fliptop=1
c --force=0
c --gauss=1
c --gaussextrall=1
c --gaussmaxor=20
c --gaussexptrn=1
c --gaussmaxeff=50000000
c --gaussmineff=2000000
c --gaussreleff=2
c --gluescale=2
c --gluekeep=0
c --inprocessing=1
c --cintinc=10000
c --irrlim=20
c --lift=1
c --lftmaxeff=20000000
c --lftmineff=500000
c --lftreleff=6
c --lhbr=1
c --lkhd=1
c --clim=-1
c --mocint=1000
c --move=2
c --log=-1
c --otfs=1
c --phase=0
c --phaseneginit=0
c --plain=0
c --probe=1
c --prbasicmaxeff=100000000
c --prbasicmineff=1000000
c --prbasicreleff=10
c --prbasic=1
c --prbasicroundlim=9
c --queuemergelim=10000
c --queuefactor=833
c --queueinc=20
c --rmincpen=4
c --seed=0
c --smallirr=90
c --smallve=1
c --smallvevars=12
c --randec=1
c --randecint=1000
c --redfixed=0
c --redlbound=0
c --redlexpfac=10
c --redldoutfac=0
c --redloutinc=10000
c --redlinit=1000
c --redlinc=1000
c --redinoutinc=100
c --redlmininc=10
c --redlmaxinc=200
c --redlminrel=10
c --redlmaxrel=300
c --redlminabs=500
c --redlmaxabs=1000000
c --reduce=1
c --restart=2
c --restartint=5
c --rstinoutinc=110
c --simplify=1
c --simpdelay=100
c --simpen=4
c --sizepen=1000000
c --sizemaxpen=3
c --sortlits=0
c --syncint=111111
c --termint=122222
c --ternres=1
c --ternresrtc=0
c --trnrmineff=4000000
c --trnrmaxeff=40000000
c --trnreleff=10
c --transred=1
c --trdmineff=100000
c --trdmaxeff=2000000
c --trdreleff=10
c --unhide=1
c --unhdextstamp=1
c --unhdhbr=0
c --unhdmaxeff=20000000
c --unhdmineff=1000000
c --unhdreleff=4
c --unhdlnpr=3
c --unhdroundlim=5
c --verbose=1
c --witness=1
c [limits] no conflict limit
c [limits] simplification delayed by 100 to 100 conflicts
c 
c  seconds         irredundant          redundant clauses agility   height
c          variables clauses conflicts large binary ternary    glue         MB
c 
c *    0.0  125528   527250         0       0      0     0  64  0.0   0.0   42
c [cut-width] 175950, max 271840, min4 118920 at 75%, min10 32549 at 90%
c [decision-order] bias 1, old 1
c [queue-schedule-all-variables]
c s    0.0  125528   527250         0       0      0     0  64  0.0   0.0   42
c [simplification-1] limit hit at 100 conflicts
c [simplification-1] simplification penalty of 4
c [ternres-1] limit 4000000 with penalty 0 = 0 + 0
c [ternres-1] all 125528 free variables schedulable
c [ternres-1] 0 ternary resolvents (0 bin, 0 trn)
c [ternres-1] 28773 variables remain 23% (96755 retained)
c [gauss-1] limit 2000000 penalty 0 = 0 + 0
c [gauss-1] extracted 165182 xors of average arity 2.0
c [gauss-1] connected 330365 occurrences of 86305 variables (average 3.8)
c [gauss-1] limit 2000000 penalty 0 = 0 + 0
c [gauss-1] exported 0 unary, 0 binary and 0 ternary equations
c G    1.2  125528   505946       100     100      0     0  76  5.9 257.4   28
c d    1.4   58006   263574       100     100      0     0  76  5.9 257.4   21
c [basicprobe-1] limit 1000000 penalty 0 = 0 + 0
c [basicprobe-1-0] 3920 probes remain 7% after last round
c [basicprobe-1-0] removed 0 variables, found 2474 hbrs
c p    1.5   58006   263574       100     100   2473     0  76  5.9 257.4   25
c [cgrclsr-1] limit 200000 penalty 0 = 0 + 0
c [cgrclsr-1] all 58006 free variables schedulable
c [cgrclsr-1] fully completed congruence closure
c [lift-1] limit 500000 with penalty 0 = 0 + 0
c [lift-1] using 58006 probes 100%
c [lift-1] 57969 variables remain 100% (36 retained)
c [lift-1] removed 1 variables
c ^    1.9   58005   263570       100     100   2837     0  76  5.9 257.4   21
c [cliff-1] limit of 10000000 steps penalty 0 = 0 + 0
c [cliff-1] failed 0, lifted 0
c [unhide-1] limit 1000000 with penalty 0 = 0 + 0
c [unhide-1-1] 0 units, 2 failed, 20704 tauts, 0 hbrs, 101 literals
c u    2.6   58003   242866       100     100   9770     0  76  5.9 257.4   25
c [transred-1] limit 100000 with penalty 0 = 0 + 0
c t    2.7   58003   242865       100     100   9765     0  76  5.9 257.4   25
c [block-1] scheduling all variables this time
c [block-1] scheduled 58003 variables 100%
c [block-1] limit of 10000000 steps penalty 0 = 0 + 0
c [block-1] fully completed blocked clause elimination
c [block-1] transition to [ all 0 rem 0 ] state
c [block-1] eliminated 4400 blocked clauses
c k    2.9   58003   238456       100     100   9765  4400  76  5.9 257.4   21
c [cce-1] scheduling all variables this time
c [cce-1] limit of 10000000 steps penalty 0 = 0 + 0
c [cce-1] incomplete covered clause elimination 52747 not tried 91%
c [cce-1] transition to [ all 1 rem 1 ] state
c [cce-1] eliminated 124 covered clauses
c E    3.6   58001   238332       100     100  21146  4400  76  5.9 257.4   21
c [elim-1] scheduling all variables this time
c [elim-1] scheduled 58001 variables 100%
c [elim-1] limit of 5000000 steps penalty 0 = 0 + 0
c [elim-1] incomplete variable elimination 43376 not tried 75%
c [elim-1] transition to [ all 1 rem 1 ] state
c [elim-1] eliminated 6369 = 11% variables out of 58001
c e    5.2   51632   234467       100      62   6744   562  76  5.9 257.4   21
c [phase-1] phase bias: 1526 positive 15%, 8879 negative 85%
c [simplification-1] removed 73896 variables 58%
c [simplification-1] limit increments divided by 30
c [simplification-1] arithmetic increase of conflict limit interval by 333
c [simplification-1] new irredundant limit 2303931
c [simplification-1] new conflict limit 433
c [simplification-1] simplification penalty reduced to 3
c 1    5.3   51632   234467       192     152   6744   564  38  8.8 621.6   25
c 
c  seconds         irredundant          redundant clauses agility   height
c          variables clauses conflicts large binary ternary    glue         MB
c 
c blkd: 1 bces, 4400 removed, 704885 resolutions, 1970336 steps
c blkd: 4400 blocking literals 1%, 0 pure
c cces: 1 cces, 116 eliminated, 116 ate 100%, 0 abce 0%
c cces: 10510 probed, 1 lifted, 2 failed
c clff: 1 cliffs, 0 lifted, 0 failed
c clff: 3356 decisions, 10023939 steps
c clls: 1 sat, 0 simp, 0 freeze, 0 melt
c clls: 2165788 add, 0 assume,, 0 deref, 0 failed
c clls: 0 cassume, 0 mosat
c coll: 8 gcs, 0 rescored clauses
c cgrs: 1 count, 200000 esteps, 45500 csteps
c cgrs: 0 eqs, 0 units
c cgrs: 0 matched (0 ands 0%, 0 xors 0%, 0 ites 0%)
c cgrs: 0 simplified (0 ands 0%, 0 xors 0%, 0 ites 0%)
c cgrs: 1630 extracted (1366 ands 84%, 264 xors 16%, 0 ites 0%)
c dcps: 1 decompositions, 67522 equivalent 30%
c decs: 2305 decision, 1 random 0.043%
c decs: 0 flipped 0.000% (in 0 phases)
c elms: 1 elims, 6369 eliminated 3%
c elms: 6369 small 100%, 0 large 0%
c elms: 14708 tried small, 6369 succeeded 43%, 8339 failed 57%
c elms: 0 subsumed, 0 strengthened, 0 blocked
c elms: 160718 copies, 113522 resolutions, 317851 ipos
c elms: 0 subchks, 0 strchks
c frcs: 0 computed, 43.3 - 56.7 average min-cut range
c gaus: 1 extractions, 165182 extracted, 2.0 size, 3 max
c gaus: exported 0 units, 0 binary and 0 ternary equations
c gaus: 0 gc, 4000050 steps, 2000025 extr 50%, 2223246 elim 56%
c glue: 8.8 avg, 3.2 scaled avg
c glue: 0 maxredglue=15 (0%)
c lift: 1 phases, 216 probed (72 level1 33%, 144 level2 67%)
c lift: 1 units, 0 equivalences, 0 implications
c hbrs: 21036 hbrs = 21036 trn 100% + 0 lrg 0%, 1 sub 0%
c lrnd: 192 clauses, 180 uips 94%, 20.3 length, 8.8 glue
c ints: 20 luby (927 steps), 0 inout (0 steps)
c mins: 3899 learned lits, 1% minimized
c move: moved 4516, 116 binary 3%, 4400 ternary 97%
c otfs: str 5 dyn (5 red, 0 irr) 0 drv 0%, 5 rst 100%
c otfs: sub 0 dyn (0 red, 0 irr)
c phas: 1 computed, 10527 set, 1526 pos (14%), 9001 neg (86%)
c prbs: 1 basic, 1184 probed, 0 failed, 0 lifted
c prps: 3859169 props, 141 props/dec
c prps: 8% srch, 92% simp, 0% lkhd
c psns: 38716 searches, 1674 hits, 4% hit rate
c queu: 322 new, 81 del, 90 maximum priority
c queu: 229 merged, 90 collected, 1 gcs
c queu: 197 deprioritized, 14.1 lines on average
c reds: 0 count, 0 reset, 0 acts 0%, 0 exp 0%
c reds: 0 arithmetic 0%, 0 double 0%
c rmbd: 0 removed, 0 red 0%
c rsts: 0 restarts 0%, 19 skipped 100%
c rsts: 0 kept 0.0% average 0.0%
c simp: 1 count (0 ilim 0%, 0 plim 0%, 1 clim 100%)
c trnr: 1 count, 0 bin, 0 trn, 4000001 steps
c tops: 101037 fixed 45%, 0 iterations
c trds: 2 transitive reductions, 6 removed, 0 failed
c trds: 127 nodes, 164 edges, 101940 steps
c unhd: 1 count, 1 rounds, 1274771 steps
c unhd: 0 non-trivial sccs of average size 0.0
c unhd: 0 units, 0 bin, 0 trn, 0 lrg
c unhd: 2 failed, 2 stamp, 0 lits, 0 bin, 0 trn, 0 lrg
c unhd: 20704 tauts, 0 bin 0%, 0 trn 0%, 0 lrg 0%
c unhd: 20704 tauts, 20704 stamp 100%, 0 red 0%
c unhd: 0 hbrs, 0 trn 0%, 0 lrg 0%, 0 red 0%
c unhd: 101 strd, 0 bin 0%, 0 trn 0%, 101 lrg 100%, 101 red 100%
c vars: 51632 remaining 23% and 174928 removed 77% out of 226560
c vars: 101037 fixed 45%, 6369 eliminated 3%, 67522 equivalent 30%
c vsts: 17677354 visits, 6% srch, 94% simp, 0% lkhd
c vsts: 3.4 search visits per propagation 5789.6 per conflict
c wchs: 4838369 pushed, 2358658 enlarged, 12 defrags
c 
c scaledglue  added       reduced       forcing      resolved     conflicts
c 
c all       190 100         0 100       263 100       244 100        10 100
c 
c  0          0   0         0   0<        0   0         0   0         0   0 
c  1          1   1         0   0         4   2         1   0         0   0 
c  2         54  28         0   0        61  23        61  25         3  30 
c  3         65  34<        0   0        86  33<       77  32<        1  10<
c  4         63  33         0   0       105  40        98  40         6  60 
c  5          3   2         0   0         3   1         3   1         0   0 
c  6          0   0         0   0         0   0         0   0         0   0 
c  7          0   0         0   0         0   0         0   0         0   0 
c  8          0   0         0   0         0   0         0   0         0   0 
c  9          3   2         0   0         3   1         3   1         0   0 
c 10          0   0         0   0         0   0         0   0         0   0 
c 11          1   1         0   0         1   0         1   0         0   0 
c 12          0   0         0   0         0   0         0   0         0   0 
c 13          0   0         0   0         0   0         0   0         0   0 
c 14          0   0         0   0         0   0         0   0         0   0 
c 15          0   0         0   0         0   0         0   0         0   0 
c 
c avg             3.2           0.0           3.3           3.3           3.3
c std             1.3           0.0           1.2           1.2           0.9
c 
c 2305 decisions, 192 conflicts, 36.0 conflicts/sec
c 3859169 propagations, 0.7 megaprops/sec
c 5.3 seconds, 48.8 MB
c 
c    0.012   0% analysis
c    0.292   5% block
c    0.000   0% bump
c    0.000   0% card
c    0.672  13% cce
c    0.540  10% cliff
c    0.024   0% cutwidth
c    0.004   0% decide
c    0.000   0% force
c    0.636  12% gc
c    0.164   3% cgrclsr
c    0.236   4% decomp
c    0.152   3% defrag
c    1.548  29% elim
c    1.008  19% gauss
c    0.224   4% lift
c    0.012   0% mincls
c    0.040   1% phase
c    0.096   2% probe
c    0.000   0% reduce
c    0.000   0% restart
c    0.120   2% ternres
c    0.012   0% transred
c    0.184   3% unhide
c ==================================
c    0.032   1% preprocessing     1%
c    5.208  98% inprocessing     99%
c ==================================
c    5.240  98% simplifying
c    0.000   0% lookahead
c    0.072   1% search
c ==================================
c    5.328 100% all
c
s SATISFIABLE
